%%%% data/gc_50_5

nodesNumber = 50;
edges = [|false, false, false, true, false, true, true, true, false, true, false, true, true, true, true, true, false, false, true, true, true, false, false, true, true, false, true, true, true, false, true, true, false, true, false, false, true, false, true, false, true, true, false, true, true, false, true, false, true, false
|false, false, false, false, false, false, false, true, true, true, false, true, false, true, true, true, false, false, true, true, true, true, false, true, true, false, false, false, false, true, false, false, false, false, false, false, false, true, false, false, false, false, true, false, false, true, false, false, true, true
|false, false, false, true, true, false, true, true, false, false, true, false, true, true, false, true, false, true, true, false, true, true, true, false, false, false, false, true, true, true, false, false, true, true, true, false, false, false, true, true, false, true, true, false, false, false, true, false, true, false
|true, false, true, false, false, true, true, true, true, false, true, false, true, true, true, false, true, false, false, true, true, false, false, false, true, false, true, false, false, true, true, true, false, false, true, true, false, true, true, false, true, true, true, false, false, false, true, false, true, true
|false, false, true, false, false, false, false, true, false, true, true, true, true, false, false, false, false, true, true, true, true, false, true, true, true, true, true, true, false, false, true, false, true, false, false, true, true, true, false, true, true, false, true, true, false, true, true, true, true, true
|true, false, false, true, false, false, false, true, true, true, false, true, false, true, false, false, true, false, false, false, false, true, true, false, true, true, false, false, true, false, true, true, false, false, true, true, false, true, true, false, true, true, false, true, true, false, false, true, false, false
|true, false, true, true, false, false, false, true, false, false, false, true, true, true, true, false, true, true, false, false, true, true, false, true, false, false, true, false, true, true, true, true, true, false, true, false, false, false, true, false, false, true, false, false, true, false, true, false, false, false
|true, true, true, true, true, true, true, false, true, false, false, false, false, true, false, false, false, false, false, false, false, true, false, false, false, true, false, true, true, false, true, false, false, true, false, false, false, true, false, true, false, false, false, false, true, false, false, true, false, true
|false, true, false, true, false, true, false, true, false, true, false, true, false, false, false, false, true, true, true, true, false, false, true, false, false, false, true, false, true, true, true, false, true, false, false, true, true, true, false, false, true, true, false, false, false, false, true, false, true, true
|true, true, false, false, true, true, false, false, true, false, false, true, true, false, true, true, false, true, false, false, true, true, false, true, false, true, false, false, false, false, false, false, false, true, false, true, false, false, true, false, false, false, true, true, true, true, false, false, true, true
|false, false, true, true, true, false, false, false, false, false, false, false, true, false, false, false, true, false, true, false, true, false, false, false, false, false, false, false, false, true, false, false, false, false, true, false, false, true, true, true, false, true, true, false, true, false, true, false, true, true
|true, true, false, false, true, true, true, false, true, true, false, false, true, false, true, false, true, false, true, false, true, false, true, false, false, false, true, false, true, false, false, true, false, true, true, true, false, true, false, false, false, true, true, false, false, false, false, true, false, true
|true, false, true, true, true, false, true, false, false, true, true, true, false, false, true, false, true, false, false, false, true, false, false, false, true, true, false, true, true, false, true, false, false, false, true, false, true, false, false, true, false, true, false, false, true, false, true, false, true, true
|true, true, true, true, false, true, true, true, false, false, false, false, false, false, false, false, true, false, true, true, true, true, false, true, false, true, false, true, false, false, true, true, false, true, false, true, true, true, true, true, false, true, true, true, false, false, false, true, true, true
|true, true, false, true, false, false, true, false, false, true, false, true, true, false, false, false, true, true, false, false, true, false, true, true, false, false, false, false, false, true, true, true, true, true, false, true, true, false, false, false, false, false, true, true, false, false, false, false, true, true
|true, true, true, false, false, false, false, false, false, true, false, false, false, false, false, false, true, false, true, true, false, true, false, false, false, true, true, false, true, true, false, false, false, true, false, true, true, true, false, true, false, false, false, false, false, true, false, false, true, true
|false, false, false, true, false, true, true, false, true, false, true, true, true, true, true, true, false, true, true, false, true, true, false, false, false, false, false, true, true, true, false, false, true, true, false, false, true, true, true, true, true, false, false, false, true, true, false, true, false, true
|false, false, true, false, true, false, true, false, true, true, false, false, false, false, true, false, true, false, true, true, false, false, false, false, false, false, true, false, true, true, false, true, false, true, true, false, false, false, false, true, true, true, true, true, false, true, true, false, true, true
|true, true, true, false, true, false, false, false, true, false, true, true, false, true, false, true, true, true, false, false, false, false, false, true, false, false, true, false, false, true, false, true, true, true, true, true, false, false, false, true, false, true, false, false, false, true, false, false, true, true
|true, true, false, true, true, false, false, false, true, false, false, false, false, true, false, true, false, true, false, false, false, false, true, true, true, true, false, false, false, false, true, false, false, false, true, true, false, true, true, false, true, true, true, true, false, true, false, false, true, false
|true, true, true, true, true, false, true, false, false, true, true, true, true, true, true, false, true, false, false, false, false, false, false, true, true, true, false, false, true, false, true, false, false, false, true, false, false, false, false, false, false, true, false, false, false, true, true, false, true, true
|false, true, true, false, false, true, true, true, false, true, false, false, false, true, false, true, true, false, false, false, false, false, true, false, true, true, false, false, false, true, false, true, true, false, true, false, false, false, true, false, false, false, true, false, true, false, true, true, false, false
|false, false, true, false, true, true, false, false, true, false, false, true, false, false, true, false, false, false, false, true, false, true, false, true, false, true, false, true, false, false, false, false, false, false, false, true, false, false, true, false, true, false, false, true, false, true, true, true, true, true
|true, true, false, false, true, false, true, false, false, true, false, false, false, true, true, false, false, false, true, true, true, false, true, false, false, false, false, false, true, false, true, true, false, true, false, true, true, false, false, true, false, false, false, true, true, true, false, true, true, false
|true, true, false, true, true, true, false, false, false, false, false, false, true, false, false, false, false, false, false, true, true, true, false, false, false, true, false, false, false, true, false, false, false, true, true, true, true, true, true, false, true, true, false, false, true, true, false, false, true, true
|false, false, false, false, true, true, false, true, false, true, false, false, true, true, false, true, false, false, false, true, true, true, true, false, true, false, true, true, false, true, false, false, true, false, false, false, false, false, false, false, true, true, true, true, true, false, false, true, false, false
|true, false, false, true, true, false, true, false, true, false, false, true, false, false, false, true, false, true, true, false, false, false, false, false, false, true, false, false, true, true, true, true, true, false, true, false, false, false, false, false, false, false, true, false, true, false, true, false, true, true
|true, false, true, false, true, false, false, true, false, false, false, false, true, true, false, false, true, false, false, false, false, false, true, false, false, true, false, false, false, false, false, false, false, false, false, false, false, true, false, true, true, true, true, false, false, false, true, false, false, false
|true, false, true, false, false, true, true, true, true, false, false, true, true, false, false, true, true, true, false, false, true, false, false, true, false, false, true, false, false, false, true, true, false, false, true, false, false, false, false, false, true, true, false, true, false, false, true, false, true, false
|false, true, true, true, false, false, true, false, true, false, true, false, false, false, true, true, true, true, true, false, false, true, false, false, true, true, true, false, false, false, true, true, false, true, true, true, false, false, false, true, true, true, false, true, true, false, false, false, false, false
|true, false, false, true, true, true, true, true, true, false, false, false, true, true, true, false, false, false, false, true, true, false, false, true, false, false, true, false, true, true, false, false, false, true, true, true, false, false, true, true, true, false, true, true, true, true, false, true, true, true
|true, false, false, true, false, true, true, false, false, false, false, true, false, true, true, false, false, true, true, false, false, true, false, true, false, false, true, false, true, true, false, false, false, true, false, true, true, true, true, false, true, false, true, true, true, false, true, false, false, false
|false, false, true, false, true, false, true, false, true, false, false, false, false, false, true, false, true, false, true, false, false, true, false, false, false, true, true, false, false, false, false, false, false, false, false, true, true, false, false, true, false, false, false, true, true, false, true, false, false, true
|true, false, true, false, false, false, false, true, false, true, false, true, false, true, true, true, true, true, true, false, false, false, false, true, true, false, false, false, false, true, true, true, false, false, false, false, false, true, false, false, false, false, false, true, true, false, false, true, false, true
|false, false, true, true, false, true, true, false, false, false, true, true, true, false, false, false, false, true, true, true, true, true, false, false, true, false, true, false, true, true, true, false, false, false, false, true, true, true, true, true, true, true, true, true, false, true, false, false, true, false
|false, false, false, true, true, true, false, false, true, true, false, true, false, true, true, true, false, false, true, true, false, false, true, true, true, false, false, false, false, true, true, true, true, false, true, false, false, true, false, false, false, false, false, true, true, false, true, true, true, false
|true, false, false, false, true, false, false, false, true, false, false, false, true, true, true, true, true, false, false, false, false, false, false, true, true, false, false, false, false, false, false, true, true, false, true, false, false, true, false, false, false, false, false, false, true, true, false, true, true, false
|false, true, false, true, true, true, false, true, true, false, true, true, false, true, false, true, true, false, false, true, false, false, false, false, true, false, false, true, false, false, false, true, false, true, true, true, true, false, false, true, false, false, true, true, true, true, false, false, true, true
|true, false, true, true, false, true, true, false, false, true, true, false, false, true, false, false, true, false, false, true, false, true, true, false, true, false, false, false, false, false, true, true, false, false, true, false, false, false, false, false, true, false, false, false, true, false, false, true, false, true
|false, false, true, false, true, false, false, true, false, false, true, false, true, true, false, true, true, true, true, false, false, false, false, true, false, false, false, true, false, true, true, false, true, false, true, false, false, true, false, false, true, false, false, false, true, true, false, true, false, true
|true, false, false, true, true, true, false, false, true, false, false, false, false, false, false, false, true, true, false, true, false, false, true, false, true, true, false, true, true, true, true, true, false, false, true, false, false, false, true, true, false, true, false, true, false, false, false, true, false, true
|true, false, true, true, false, true, true, false, true, false, true, true, true, true, false, false, false, true, true, true, true, false, false, false, true, true, false, true, true, true, false, false, false, false, true, false, false, false, false, false, true, false, true, true, true, false, true, true, false, true
|false, true, true, true, true, false, false, false, false, true, true, true, false, true, true, false, false, true, false, true, false, true, false, false, false, true, true, true, false, false, true, true, false, false, true, false, false, true, false, false, false, true, false, true, true, true, false, false, false, false
|true, false, false, false, true, true, false, false, false, true, false, false, false, true, true, false, false, true, false, true, false, false, true, true, false, true, false, false, true, true, true, true, true, true, true, true, false, true, false, false, true, true, true, false, true, false, true, false, true, false
|true, false, false, false, false, true, true, true, false, true, true, false, true, false, false, false, true, false, false, false, false, true, false, true, true, true, true, false, false, true, true, true, true, true, false, true, true, true, true, true, false, true, true, true, false, true, true, false, true, true
|false, true, false, false, true, false, false, false, false, true, false, false, false, false, false, true, true, true, true, true, true, false, true, true, true, false, false, false, false, false, true, false, false, false, true, false, true, true, false, true, false, false, true, false, true, false, false, false, true, true
|true, false, true, true, true, false, true, false, true, false, true, false, true, false, false, false, false, true, false, false, true, true, true, false, false, false, true, true, true, false, false, true, true, false, false, true, false, false, false, false, false, true, false, true, true, false, false, true, true, false
|false, false, false, false, true, true, false, true, false, false, false, true, false, true, false, false, true, false, false, false, false, true, true, true, false, true, false, false, false, false, true, false, false, true, false, true, true, false, true, true, true, true, false, false, false, false, true, false, true, true
|true, true, true, true, true, false, false, false, true, true, true, false, true, true, true, true, false, true, true, true, true, false, true, true, true, false, true, false, true, false, true, false, false, false, true, true, true, true, false, false, false, false, false, true, true, true, true, true, false, false
|false, true, false, true, true, false, false, true, true, true, true, true, true, true, true, true, true, true, true, false, true, false, true, false, true, false, true, false, false, false, true, false, true, true, false, false, false, true, true, true, true, true, false, false, true, true, false, true, false, false
|];
